data;
param nombreJob := 5;
param nombreRessource := 3;
param duree := 1 10 2 6 3 4 4 1 5 10;
param capaciteRessource := 1 5 2 15 3 17;
param besoinRessource : 1 2 3 :=
                    1   4 1 10
                    2   3 1 2
                    3   4 5 6
                    4   1 3 3
                    5   3 6 9;
end;

